m = 5; % number of couriers
n = 7; % number of packages

l = [17, 17, 8, 18, 17]; % maximum carriable weight per courier
s = [5, 3, 7, 8, 4, 5, 5]; % weight of each package

D = % distance matrix 
	 [| 4, 12, 11, 10, 11, 10, 7, 12
	 | 12, 12, 4, 4, 7, 10, 12, 11
	 | 11, 4, 3, 11, 3, 10, 12, 9
	 | 10, 4, 11, 11, 11, 10, 11, 12
	 | 11, 7, 3, 11, 7, 3, 10, 10
	 | 10, 10, 10, 10, 3, 4, 8, 4
	 | 7, 12, 12, 11, 10, 8, 10, 6
	 | 7, 5, 4, 12, 5, 4, 10, 10
	 |];